objective value:                                10206
t_x_0                                               1 	(obj:27)
t_x_4                                               1 	(obj:56)
t_x_10                                              1 	(obj:44)
t_x_11                                              1 	(obj:22)
t_x_16                                              1 	(obj:39)
t_x_18                                              1 	(obj:50)
t_x_19                                              1 	(obj:14)
t_x_21                                              1 	(obj:6)
t_x_24                                              1 	(obj:6)
t_x_25                                              1 	(obj:18)
t_x_26                                              1 	(obj:16)
t_x_27                                              1 	(obj:40)
t_x_28                                              1 	(obj:0)
t_x_35                                              1 	(obj:13)
t_x_38                                              1 	(obj:23)
t_x_40                                              1 	(obj:17)
t_x_41                                              1 	(obj:19)
t_x_42                                              1 	(obj:4)
t_x_44                                              1 	(obj:30)
t_x_47                                              1 	(obj:38)
t_x_50                                              1 	(obj:12)
t_x_54                                              1 	(obj:14)
t_x_55                                              1 	(obj:10)
t_x_56                                              1 	(obj:0)
t_x_57                                              1 	(obj:15)
t_x_58                                              1 	(obj:39)
t_x_61                                              1 	(obj:60)
t_x_62                                              1 	(obj:24)
t_x_64                                              1 	(obj:68)
t_x_67                                              1 	(obj:27)
t_x_70                                              1 	(obj:1)
t_x_72                                              1 	(obj:3)
t_x_78                                              1 	(obj:34)
t_x_79                                              1 	(obj:31)
t_x_81                                              1 	(obj:36)
t_x_83                                              1 	(obj:11)
t_x_86                                              1 	(obj:20)
t_x_95                                              1 	(obj:1)
t_x_96                                              1 	(obj:0)
t_x_102                                             1 	(obj:14)
t_x_103                                             1 	(obj:6)
t_x_107                                             1 	(obj:37)
t_x_109                                             1 	(obj:9)
t_x_110                                             1 	(obj:24)
t_x_115                                             1 	(obj:19)
t_x_125                                             1 	(obj:37)
t_x_127                                             1 	(obj:3)
t_x_129                                             1 	(obj:0)
t_x_136                                             1 	(obj:36)
t_x_138                                             1 	(obj:5)
t_x_144                                             1 	(obj:25)
t_x_147                                             1 	(obj:47)
t_x_148                                             1 	(obj:0)
t_x_150                                             1 	(obj:14)
t_x_151                                             1 	(obj:13)
t_x_155                                             1 	(obj:31)
t_x_164                                             1 	(obj:10)
t_x_168                                             1 	(obj:12)
t_x_171                                             1 	(obj:21)
t_x_176                                             1 	(obj:30)
t_x_183                                             1 	(obj:11)
t_x_185                                             1 	(obj:26)
t_x_187                                             1 	(obj:19)
t_x_204                                             1 	(obj:1)
t_x_206                                             1 	(obj:0)
t_x_207                                             1 	(obj:32)
t_x_209                                             1 	(obj:11)
t_x_212                                             1 	(obj:18)
t_x_213                                             1 	(obj:30)
t_x_216                                             1 	(obj:28)
t_x_217                                             1 	(obj:35)
t_x_221                                             1 	(obj:22)
t_x_222                                             1 	(obj:17)
t_x_230                                             1 	(obj:52)
t_x_239                                             1 	(obj:14)
t_x_242                                             1 	(obj:2)
t_x_244                                             1 	(obj:18)
t_x_251                                             1 	(obj:25)
t_x_256                                             1 	(obj:23)
t_x_260                                             1 	(obj:23)
t_x_262                                             1 	(obj:22)
t_x_270                                             1 	(obj:36)
t_x_271                                             1 	(obj:26)
t_x_281                                             1 	(obj:47)
t_x_286                                             1 	(obj:5)
t_x_288                                             1 	(obj:37)
t_x_293                                             1 	(obj:5)
t_x_297                                             1 	(obj:24)
t_x_299                                             1 	(obj:27)
t_x_308                                             1 	(obj:21)
t_x_316                                             1 	(obj:3)
t_x_317                                             1 	(obj:7)
t_x_319                                             1 	(obj:6)
t_x_323                                             1 	(obj:18)
t_x_324                                             1 	(obj:2)
t_x_327                                             1 	(obj:10)
t_x_329                                             1 	(obj:11)
t_x_333                                             1 	(obj:27)
t_x_336                                             1 	(obj:0)
t_x_345                                             1 	(obj:9)
t_x_346                                             1 	(obj:16)
t_x_347                                             1 	(obj:28)
t_x_353                                             1 	(obj:6)
t_x_356                                             1 	(obj:10)
t_x_357                                             1 	(obj:0)
t_x_358                                             1 	(obj:24)
t_x_360                                             1 	(obj:16)
t_x_363                                             1 	(obj:36)
t_x_367                                             1 	(obj:12)
t_x_374                                             1 	(obj:18)
t_x_377                                             1 	(obj:26)
t_x_378                                             1 	(obj:0)
t_x_379                                             1 	(obj:33)
t_x_380                                             1 	(obj:6)
t_x_382                                             1 	(obj:7)
t_x_383                                             1 	(obj:2)
t_x_384                                             1 	(obj:16)
t_x_393                                             1 	(obj:1)
t_x_398                                             1 	(obj:16)
t_x_405                                             1 	(obj:1)
t_x_408                                             1 	(obj:10)
t_x_410                                             1 	(obj:12)
t_x_413                                             1 	(obj:11)
t_x_415                                             1 	(obj:20)
t_x_423                                             1 	(obj:12)
t_x_425                                             1 	(obj:5)
t_x_429                                             1 	(obj:7)
t_x_434                                             1 	(obj:10)
t_x_437                                             1 	(obj:8)
t_x_438                                             1 	(obj:4)
t_x_440                                             1 	(obj:12)
t_x_442                                             1 	(obj:14)
t_x_445                                             1 	(obj:20)
t_x_451                                             1 	(obj:23)
t_x_457                                             1 	(obj:40)
t_x_460                                             1 	(obj:28)
t_x_462                                             1 	(obj:13)
t_x_463                                             1 	(obj:27)
t_x_465                                             1 	(obj:16)
t_x_468                                             1 	(obj:2)
t_x_472                                             1 	(obj:20)
t_x_476                                             1 	(obj:28)
t_x_478                                             1 	(obj:29)
t_x_479                                             1 	(obj:15)
t_x_480                                             1 	(obj:17)
t_x_485                                             1 	(obj:9)
t_x_488                                             1 	(obj:0)
t_x_489                                             1 	(obj:25)
t_x_493                                             1 	(obj:14)
t_x_498                                             1 	(obj:5)
t_x_509                                             1 	(obj:36)
t_x_516                                             1 	(obj:0)
t_x_519                                             1 	(obj:23)
t_x_531                                             1 	(obj:27)
t_x_534                                             1 	(obj:16)
t_x_535                                             1 	(obj:11)
t_x_536                                             1 	(obj:0)
t_x_539                                             1 	(obj:16)
t_x_540                                             1 	(obj:6)
t_x_542                                             1 	(obj:22)
t_x_545                                             1 	(obj:18)
t_x_546                                             1 	(obj:32)
t_x_554                                             1 	(obj:3)
t_x_556                                             1 	(obj:6)
t_x_557                                             1 	(obj:20)
t_x_558                                             1 	(obj:1)
t_x_562                                             1 	(obj:15)
t_x_564                                             1 	(obj:0)
t_x_565                                             1 	(obj:20)
t_x_566                                             1 	(obj:48)
t_x_567                                             1 	(obj:29)
t_x_570                                             1 	(obj:7)
t_x_572                                             1 	(obj:34)
t_x_574                                             1 	(obj:10)
t_x_578                                             1 	(obj:17)
t_x_585                                             1 	(obj:15)
t_x_593                                             1 	(obj:5)
t_x_595                                             1 	(obj:15)
t_x_598                                             1 	(obj:13)
t_x_602                                             1 	(obj:4)
t_x_603                                             1 	(obj:6)
t_x_604                                             1 	(obj:27)
t_x_605                                             1 	(obj:4)
t_x_606                                             1 	(obj:28)
t_x_609                                             1 	(obj:0)
t_x_613                                             1 	(obj:16)
t_x_616                                             1 	(obj:10)
t_x_620                                             1 	(obj:18)
t_x_623                                             1 	(obj:7)
t_x_624                                             1 	(obj:3)
t_x_633                                             1 	(obj:17)
t_x_636                                             1 	(obj:20)
t_x_638                                             1 	(obj:19)
t_x_644                                             1 	(obj:5)
t_x_653                                             1 	(obj:2)
t_x_661                                             1 	(obj:45)
t_x_672                                             1 	(obj:14)
t_x_681                                             1 	(obj:12)
t_x_684                                             1 	(obj:24)
t_x_685                                             1 	(obj:0)
t_x_688                                             1 	(obj:9)
t_x_690                                             1 	(obj:19)
t_x_691                                             1 	(obj:28)
t_x_699                                             1 	(obj:10)
t_x_701                                             1 	(obj:38)
t_x_702                                             1 	(obj:3)
t_x_705                                             1 	(obj:33)
t_x_710                                             1 	(obj:6)
t_x_711                                             1 	(obj:0)
t_x_712                                             1 	(obj:5)
t_x_715                                             1 	(obj:5)
t_x_719                                             1 	(obj:1)
t_x_720                                             1 	(obj:11)
t_x_721                                             1 	(obj:27)
t_x_723                                             1 	(obj:4)
t_x_727                                             1 	(obj:18)
t_x_729                                             1 	(obj:18)
t_x_731                                             1 	(obj:3)
t_x_737                                             1 	(obj:4)
t_x_741                                             1 	(obj:37)
t_x_743                                             1 	(obj:30)
t_x_746                                             1 	(obj:20)
t_x_747                                             1 	(obj:12)
t_x_749                                             1 	(obj:0)
t_x_753                                             1 	(obj:12)
t_x_754                                             1 	(obj:0)
t_x_755                                             1 	(obj:17)
t_x_756                                             1 	(obj:8)
t_x_757                                             1 	(obj:14)
t_x_759                                             1 	(obj:13)
t_x_762                                             1 	(obj:13)
t_x_764                                             1 	(obj:27)
t_x_766                                             1 	(obj:15)
t_x_770                                             1 	(obj:1)
t_x_775                                             1 	(obj:22)
t_x_779                                             1 	(obj:64)
t_x_787                                             1 	(obj:4)
t_x_795                                             1 	(obj:5)
t_x_796                                             1 	(obj:29)
t_x_797                                             1 	(obj:38)
t_x_798                                             1 	(obj:2)
t_x_801                                             1 	(obj:34)
t_x_802                                             1 	(obj:3)
t_x_805                                             1 	(obj:0)
t_x_806                                             1 	(obj:24)
t_x_807                                             1 	(obj:13)
t_x_808                                             1 	(obj:21)
t_x_812                                             1 	(obj:5)
t_x_817                                             1 	(obj:16)
t_x_818                                             1 	(obj:20)
t_x_826                                             1 	(obj:6)
t_x_827                                             1 	(obj:18)
t_x_828                                             1 	(obj:1)
t_x_833                                             1 	(obj:10)
t_x_837                                             1 	(obj:2)
t_x_842                                             1 	(obj:5)
t_x_844                                             1 	(obj:16)
t_x_850                                             1 	(obj:30)
t_x_851                                             1 	(obj:24)
t_x_852                                             1 	(obj:28)
t_x_856                                             1 	(obj:37)
t_x_867                                             1 	(obj:7)
t_x_869                                             1 	(obj:24)
t_x_872                                             1 	(obj:6)
t_x_873                                             1 	(obj:22)
t_x_882                                             1 	(obj:20)
t_x_885                                             1 	(obj:4)
t_x_886                                             1 	(obj:7)
t_x_904                                             1 	(obj:9)
t_x_908                                             1 	(obj:4)
t_x_909                                             1 	(obj:2)
t_x_920                                             1 	(obj:2)
t_x_928                                             1 	(obj:6)
t_x_934                                             1 	(obj:1)
t_x_935                                             1 	(obj:5)
t_x_938                                             1 	(obj:3)
t_x_939                                             1 	(obj:12)
t_x_944                                             1 	(obj:15)
t_x_946                                             1 	(obj:13)
t_x_947                                             1 	(obj:8)
t_x_956                                             1 	(obj:0)
t_x_958                                             1 	(obj:3)
t_x_960                                             1 	(obj:21)
t_x_970                                             1 	(obj:13)
t_x_973                                             1 	(obj:39)
t_x_974                                             1 	(obj:19)
t_x_978                                             1 	(obj:10)
t_x_979                                             1 	(obj:20)
t_x_984                                             1 	(obj:35)
t_x_985                                             1 	(obj:18)
t_x_986                                             1 	(obj:37)
t_x_990                                             1 	(obj:2)
t_x_991                                             1 	(obj:42)
t_x_995                                             1 	(obj:21)
t_x_996                                             1 	(obj:21)
t_x_997                                             1 	(obj:33)
t_x_998                                             1 	(obj:13)
t_x_1006                                            1 	(obj:6)
t_x_1010                                            1 	(obj:5)
t_x_1012                                            1 	(obj:4)
t_x_1019                                            1 	(obj:17)
t_x_1020                                            1 	(obj:22)
t_x_1032                                            1 	(obj:30)
t_x_1033                                            1 	(obj:40)
t_x_1034                                            1 	(obj:13)
t_x_1038                                            1 	(obj:16)
t_x_1039                                            1 	(obj:2)
t_x_1048                                            1 	(obj:0)
t_x_1049                                            1 	(obj:46)
t_x_1050                                            1 	(obj:10)
t_x_1052                                            1 	(obj:16)
t_x_1055                                            1 	(obj:11)
t_x_1059                                            1 	(obj:42)
t_x_1061                                            1 	(obj:6)
t_x_1062                                            1 	(obj:49)
t_x_1065                                            1 	(obj:18)
t_x_1070                                            1 	(obj:15)
t_x_1080                                            1 	(obj:21)
t_x_1083                                            1 	(obj:6)
t_x_1094                                            1 	(obj:16)
t_x_1096                                            1 	(obj:18)
t_x_1098                                            1 	(obj:35)
t_x_1099                                            1 	(obj:28)
t_x_1103                                            1 	(obj:0)
t_x_1105                                            1 	(obj:18)
t_x_1109                                            1 	(obj:26)
t_x_1111                                            1 	(obj:25)
t_x_1116                                            1 	(obj:6)
t_x_1123                                            1 	(obj:6)
t_x_1133                                            1 	(obj:7)
t_x_1136                                            1 	(obj:31)
t_x_1137                                            1 	(obj:3)
t_x_1140                                            1 	(obj:14)
t_x_1144                                            1 	(obj:43)
t_x_1149                                            1 	(obj:15)
t_x_1153                                            1 	(obj:4)
t_x_1154                                            1 	(obj:37)
t_x_1160                                            1 	(obj:3)
t_x_1170                                            1 	(obj:32)
t_x_1173                                            1 	(obj:18)
t_x_1177                                            1 	(obj:15)
t_x_1180                                            1 	(obj:11)
t_x_1183                                            1 	(obj:19)
t_x_1186                                            1 	(obj:9)
t_x_1192                                            1 	(obj:1)
t_x_1194                                            1 	(obj:11)
t_x_1197                                            1 	(obj:0)
t_x_1199                                            1 	(obj:27)
t_x_1202                                            1 	(obj:10)
t_x_1203                                            1 	(obj:48)
t_x_1204                                            1 	(obj:11)
t_x_1207                                            1 	(obj:21)
t_x_1209                                            1 	(obj:13)
t_x_1211                                            1 	(obj:0)
t_x_1212                                            1 	(obj:10)
t_x_1214                                            1 	(obj:20)
t_x_1219                                            1 	(obj:34)
t_x_1222                                            1 	(obj:2)
t_x_1224                                            1 	(obj:66)
t_x_1225                                            1 	(obj:5)
t_x_1227                                            1 	(obj:12)
t_x_1230                                            1 	(obj:4)
t_x_1231                                            1 	(obj:17)
t_x_1236                                            1 	(obj:19)
t_x_1240                                            1 	(obj:41)
t_x_1241                                            1 	(obj:13)
t_x_1244                                            1 	(obj:4)
t_x_1247                                            1 	(obj:25)
t_x_1250                                            1 	(obj:49)
t_x_1253                                            1 	(obj:31)
t_x_1259                                            1 	(obj:17)
t_x_1262                                            1 	(obj:17)
t_x_1265                                            1 	(obj:11)
t_x_1269                                            1 	(obj:9)
t_x_1270                                            1 	(obj:0)
t_x_1274                                            1 	(obj:2)
t_x_1276                                            1 	(obj:0)
t_x_1278                                            1 	(obj:3)
t_x_1292                                            1 	(obj:7)
t_x_1297                                            1 	(obj:31)
t_x_1301                                            1 	(obj:32)
t_x_1304                                            1 	(obj:4)
t_x_1307                                            1 	(obj:30)
t_x_1308                                            1 	(obj:15)
t_x_1313                                            1 	(obj:24)
t_x_1314                                            1 	(obj:2)
t_x_1316                                            1 	(obj:19)
t_x_1318                                            1 	(obj:0)
t_x_1321                                            1 	(obj:18)
t_x_1322                                            1 	(obj:11)
t_x_1323                                            1 	(obj:20)
t_x_1331                                            1 	(obj:12)
t_x_1332                                            1 	(obj:8)
t_x_1335                                            1 	(obj:35)
t_x_1340                                            1 	(obj:48)
t_x_1343                                            1 	(obj:23)
t_x_1348                                            1 	(obj:30)
t_x_1349                                            1 	(obj:39)
t_x_1350                                            1 	(obj:0)
t_x_1352                                            1 	(obj:15)
t_x_1359                                            1 	(obj:8)
t_x_1360                                            1 	(obj:11)
t_x_1364                                            1 	(obj:8)
t_x_1365                                            1 	(obj:24)
t_x_1368                                            1 	(obj:25)
t_x_1369                                            1 	(obj:16)
t_x_1370                                            1 	(obj:18)
t_x_1374                                            1 	(obj:17)
t_x_1378                                            1 	(obj:4)
t_x_1379                                            1 	(obj:13)
t_x_1380                                            1 	(obj:4)
t_x_1385                                            1 	(obj:37)
t_x_1386                                            1 	(obj:27)
t_x_1389                                            1 	(obj:15)
t_x_1391                                            1 	(obj:22)
t_x_1394                                            1 	(obj:13)
t_x_1395                                            1 	(obj:18)
t_x_1396                                            1 	(obj:29)
t_x_1397                                            1 	(obj:41)
t_x_1401                                            1 	(obj:8)
t_x_1404                                            1 	(obj:74)
t_x_1406                                            1 	(obj:3)
t_x_1413                                            1 	(obj:4)
t_x_1415                                            1 	(obj:16)
t_x_1420                                            1 	(obj:3)
t_x_1427                                            1 	(obj:21)
t_x_1431                                            1 	(obj:14)
t_x_1434                                            1 	(obj:14)
t_x_1437                                            1 	(obj:1)
t_x_1438                                            1 	(obj:18)
t_x_1439                                            1 	(obj:29)
t_x_1441                                            1 	(obj:8)
t_x_1442                                            1 	(obj:8)
t_x_1446                                            1 	(obj:16)
t_x_1450                                            1 	(obj:30)
t_x_1451                                            1 	(obj:13)
t_x_1458                                            1 	(obj:4)
t_x_1462                                            1 	(obj:20)
t_x_1465                                            1 	(obj:39)
t_x_1474                                            1 	(obj:24)
t_x_1482                                            1 	(obj:2)
t_x_1483                                            1 	(obj:15)
t_x_1486                                            1 	(obj:30)
t_x_1487                                            1 	(obj:16)
t_x_1493                                            1 	(obj:5)
t_x_1496                                            1 	(obj:13)
t_x_1498                                            1 	(obj:28)
t_x_1500                                            1 	(obj:28)
t_x_1503                                            1 	(obj:13)
t_x_1507                                            1 	(obj:14)
t_x_1508                                            1 	(obj:55)
t_x_1509                                            1 	(obj:5)
t_x_1511                                            1 	(obj:1)
t_x_1513                                            1 	(obj:0)
t_x_1522                                            1 	(obj:15)
t_x_1524                                            1 	(obj:7)
t_x_1525                                            1 	(obj:16)
t_x_1534                                            1 	(obj:16)
t_x_1535                                            1 	(obj:10)
t_x_1536                                            1 	(obj:14)
t_x_1537                                            1 	(obj:45)
t_x_1544                                            1 	(obj:25)
t_x_1548                                            1 	(obj:41)
t_x_1552                                            1 	(obj:50)
t_x_1553                                            1 	(obj:14)
t_x_1554                                            1 	(obj:0)
t_x_1563                                            1 	(obj:6)
t_x_1564                                            1 	(obj:11)
t_x_1568                                            1 	(obj:30)
t_x_1575                                            1 	(obj:16)
t_x_1576                                            1 	(obj:31)
t_x_1580                                            1 	(obj:7)
t_x_1585                                            1 	(obj:26)
t_x_1586                                            1 	(obj:9)
t_x_1598                                            1 	(obj:6)
t_x_1599                                            1 	(obj:22)
t_x_1603                                            1 	(obj:24)
t_x_1605                                            1 	(obj:15)
t_x_1606                                            1 	(obj:5)
t_x_1607                                            1 	(obj:4)
t_x_1612                                            1 	(obj:17)
t_x_1613                                            1 	(obj:11)
t_x_1615                                            1 	(obj:14)
t_x_1620                                            1 	(obj:32)
t_x_1622                                            1 	(obj:7)
t_x_1627                                            1 	(obj:6)
t_x_1629                                            1 	(obj:21)
t_x_1632                                            1 	(obj:5)
t_x_1633                                            1 	(obj:37)
t_x_1644                                            1 	(obj:6)
t_x_1647                                            1 	(obj:13)
t_x_1653                                            1 	(obj:4)
t_x_1654                                            1 	(obj:19)
t_x_1658                                            1 	(obj:24)
t_x_1660                                            1 	(obj:3)
t_x_1664                                            1 	(obj:50)
t_x_1665                                            1 	(obj:29)
t_x_1667                                            1 	(obj:18)
t_x_1668                                            1 	(obj:9)
t_x_1669                                            1 	(obj:18)
t_x_1674                                            1 	(obj:5)
t_x_1675                                            1 	(obj:26)
t_x_1681                                            1 	(obj:3)
t_x_1683                                            1 	(obj:17)
t_x_1686                                            1 	(obj:4)
t_x_1693                                            1 	(obj:18)
t_x_1694                                            1 	(obj:20)
t_x_1697                                            1 	(obj:24)
t_x_1699                                            1 	(obj:12)
t_x_1700                                            1 	(obj:20)
t_x_1702                                            1 	(obj:10)
t_x_1706                                            1 	(obj:9)
t_x_1707                                            1 	(obj:19)
t_x_1709                                            1 	(obj:12)
t_x_1714                                            1 	(obj:18)
t_x_1717                                            1 	(obj:3)
t_x_1722                                            1 	(obj:39)
t_x_1723                                            1 	(obj:40)
t_x_1727                                            1 	(obj:45)
t_x_1728                                            1 	(obj:4)
t_x_1729                                            1 	(obj:8)
t_x_1734                                            1 	(obj:33)
t_x_1736                                            1 	(obj:28)
t_x_1738                                            1 	(obj:20)
t_x_1739                                            1 	(obj:31)
t_x_1747                                            1 	(obj:67)
t_x_1749                                            1 	(obj:8)
t_x_1752                                            1 	(obj:10)
t_x_1756                                            1 	(obj:14)
t_x_1760                                            1 	(obj:15)
t_x_1763                                            1 	(obj:36)
t_x_1764                                            1 	(obj:7)
t_x_1767                                            1 	(obj:7)
t_x_1768                                            1 	(obj:17)
t_x_1772                                            1 	(obj:8)
t_x_1785                                            1 	(obj:29)
t_x_1787                                            1 	(obj:32)
t_x_1788                                            1 	(obj:11)
t_x_1789                                            1 	(obj:15)
t_x_1791                                            1 	(obj:2)
t_x_1797                                            1 	(obj:0)
t_x_1798                                            1 	(obj:26)
t_x_1802                                            1 	(obj:5)
t_x_1805                                            1 	(obj:23)
t_x_1806                                            1 	(obj:26)
t_x_1808                                            1 	(obj:17)
t_x_1822                                            1 	(obj:27)
t_x_1823                                            1 	(obj:32)
t_x_1824                                            1 	(obj:42)
t_x_1825                                            1 	(obj:0)
t_x_1831                                            1 	(obj:19)
t_x_1833                                            1 	(obj:3)
t_x_1836                                            1 	(obj:22)
t_x_1838                                            1 	(obj:5)
t_x_1839                                            1 	(obj:5)
t_x_1845                                            1 	(obj:2)
t_x_1859                                            1 	(obj:8)
t_x_1861                                            1 	(obj:20)
t_x_1865                                            1 	(obj:12)
t_x_1879                                            1 	(obj:7)
t_x_1885                                            1 	(obj:43)
t_x_1890                                            1 	(obj:1)
t_x_1895                                            1 	(obj:28)
t_x_1898                                            1 	(obj:7)
t_x_1903                                            1 	(obj:4)
t_x_1906                                            1 	(obj:24)
t_x_1907                                            1 	(obj:24)
t_x_1909                                            1 	(obj:12)
t_x_1910                                            1 	(obj:14)
t_x_1913                                            1 	(obj:27)
t_x_1916                                            1 	(obj:2)
t_x_1922                                            1 	(obj:7)
t_x_1928                                            1 	(obj:10)
t_x_1930                                            1 	(obj:29)
t_x_1932                                            1 	(obj:36)
t_x_1940                                            1 	(obj:1)
t_x_1942                                            1 	(obj:8)
t_x_1943                                            1 	(obj:13)
t_x_1951                                            1 	(obj:17)
t_x_1959                                            1 	(obj:12)
t_x_1960                                            1 	(obj:7)
t_x_1965                                            1 	(obj:39)
t_x_1966                                            1 	(obj:4)
t_x_1967                                            1 	(obj:31)
t_x_1969                                            1 	(obj:26)
t_x_1971                                            1 	(obj:42)
t_x_1972                                            1 	(obj:43)
t_x_1973                                            1 	(obj:13)
t_x_1976                                            1 	(obj:19)
t_x_1981                                            1 	(obj:6)
t_x_1985                                            1 	(obj:18)
t_x_1987                                            1 	(obj:28)
t_x_1988                                            1 	(obj:17)
t_x_1995                                            1 	(obj:21)
t_x_1997                                            1 	(obj:4)
